c A SAT instance generated from a 3-CNF formula that had 20 clauses and 10 variables
p cnf 10 20
-5 -6 1 0
1 10 -9 0
8 2 10 0
5 -7 -8 0
10 -2 -3 0
6 -10 -1 0
-3 -4 -10 0
-9 5 -4 0
-10 -9 -7 0
-1 5 -3 0
3 -10 -7 0
-5 1 9 0
-4 -6 1 0
10 6 -2 0
-1 9 -6 0
10 -2 -3 0
1 6 -3 0
5 10 -2 0
-9 6 -5 0
-2 7 5 0
%
0

41 51 22 36 64 52 22 33 79 86
